NAME : rnd35_50.tsp.tsp.opt.tour
TYPE : TOUR
DIMENSION : 50
TOUR_SECTION
1
38
32
4
3
25
49
19
39
36
11
26
15
10
5
45
30
14
43
13
47
23
34
12
31
8
9
7
50
29
46
44
18
35
6
22
42
2
20
41
17
37
48
16
27
40
24
33
21
28
-1